data/lp_files/pEFS/122_0.lp
\ Model foo
\ LP format - for model browsing. Use MPS format to capture full model detail.
Minimize
  z
Subject To
 allocateEach[1]: x[1,1] + x[2,1] + x[3,1] + x[4,1] + x[5,1] + x[6,1]
   + x[7,1] = 1
 allocateEach[2]: x[1,2] + x[2,2] + x[3,2] + x[4,2] + x[5,2] + x[6,2]
   + x[7,2] = 1
 allocateAllCash: cashProportion[1] + cashProportion[2] + cashProportion[3]
   + cashProportion[4] + cashProportion[5] + cashProportion[6]
   + cashProportion[7] = 1
 findWorstP[1,2]: z + 0.0317037600659438 cashProportion[1]
   - 0.0317037600659438 cashProportion[2] + 0.5822078498509923 x[1,1]
   + 0.3860883900830638 x[1,2] - 0.5822078498509923 x[2,1]
   - 0.3860883900830638 x[2,2] >= 0
 findWorstP[1,3]: z + 0.0317037600659438 cashProportion[1]
   - 0.0317037600659438 cashProportion[3] + 0.5822078498509923 x[1,1]
   + 0.3860883900830638 x[1,2] - 0.5822078498509923 x[3,1]
   - 0.3860883900830638 x[3,2] >= 0
 findWorstP[1,4]: z + 0.0317037600659438 cashProportion[1]
   - 0.0317037600659438 cashProportion[4] + 0.5822078498509923 x[1,1]
   + 0.3860883900830638 x[1,2] - 0.5822078498509923 x[4,1]
   - 0.3860883900830638 x[4,2] >= 0
 findWorstP[1,5]: z + 0.0317037600659438 cashProportion[1]
   - 0.0317037600659438 cashProportion[5] + 0.5822078498509923 x[1,1]
   + 0.3860883900830638 x[1,2] - 0.5822078498509923 x[5,1]
   - 0.3860883900830638 x[5,2] >= 0
 findWorstP[1,6]: z + 0.0317037600659438 cashProportion[1]
   - 0.0317037600659438 cashProportion[6] + 0.5822078498509923 x[1,1]
   + 0.3860883900830638 x[1,2] - 0.5822078498509923 x[6,1]
   - 0.3860883900830638 x[6,2] >= 0
 findWorstP[1,7]: z + 0.0317037600659438 cashProportion[1]
   - 0.0317037600659438 cashProportion[7] + 0.5822078498509923 x[1,1]
   + 0.3860883900830638 x[1,2] - 0.5822078498509923 x[7,1]
   - 0.3860883900830638 x[7,2] >= 0
 findWorstP[2,1]: z - 0.1041666666666667 cashProportion[1]
   + 0.1041666666666667 cashProportion[2] - 0.8575 x[1,1]
   - 0.0383333333333333 x[1,2] + 0.8575 x[2,1] + 0.0383333333333333 x[2,2]
   >= 0
 findWorstP[2,3]: z + 0.1041666666666667 cashProportion[2]
   - 0.1041666666666667 cashProportion[3] + 0.8575 x[2,1]
   + 0.0383333333333333 x[2,2] - 0.8575 x[3,1] - 0.0383333333333333 x[3,2]
   >= 0
 findWorstP[2,4]: z + 0.1041666666666667 cashProportion[2]
   - 0.1041666666666667 cashProportion[4] + 0.8575 x[2,1]
   + 0.0383333333333333 x[2,2] - 0.8575 x[4,1] - 0.0383333333333333 x[4,2]
   >= 0
 findWorstP[2,5]: z + 0.1041666666666667 cashProportion[2]
   - 0.1041666666666667 cashProportion[5] + 0.8575 x[2,1]
   + 0.0383333333333333 x[2,2] - 0.8575 x[5,1] - 0.0383333333333333 x[5,2]
   >= 0
 findWorstP[2,6]: z + 0.1041666666666667 cashProportion[2]
   - 0.1041666666666667 cashProportion[6] + 0.8575 x[2,1]
   + 0.0383333333333333 x[2,2] - 0.8575 x[6,1] - 0.0383333333333333 x[6,2]
   >= 0
 findWorstP[2,7]: z + 0.1041666666666667 cashProportion[2]
   - 0.1041666666666667 cashProportion[7] + 0.8575 x[2,1]
   + 0.0383333333333333 x[2,2] - 0.8575 x[7,1] - 0.0383333333333333 x[7,2]
   >= 0
 findWorstP[3,1]: z - 0.0625234462923596 cashProportion[1]
   + 0.0625234462923596 cashProportion[3] - 0.8529448543203701 x[1,1]
   - 0.0845316993872702 x[1,2] + 0.8529448543203701 x[3,1]
   + 0.0845316993872702 x[3,2] >= 0
 findWorstP[3,2]: z - 0.0625234462923596 cashProportion[2]
   + 0.0625234462923596 cashProportion[3] - 0.8529448543203701 x[2,1]
   - 0.0845316993872702 x[2,2] + 0.8529448543203701 x[3,1]
   + 0.0845316993872702 x[3,2] >= 0
 findWorstP[3,4]: z + 0.0625234462923596 cashProportion[3]
   - 0.0625234462923596 cashProportion[4] + 0.8529448543203701 x[3,1]
   + 0.0845316993872702 x[3,2] - 0.8529448543203701 x[4,1]
   - 0.0845316993872702 x[4,2] >= 0
 findWorstP[3,5]: z + 0.0625234462923596 cashProportion[3]
   - 0.0625234462923596 cashProportion[5] + 0.8529448543203701 x[3,1]
   + 0.0845316993872702 x[3,2] - 0.8529448543203701 x[5,1]
   - 0.0845316993872702 x[5,2] >= 0
 findWorstP[3,6]: z + 0.0625234462923596 cashProportion[3]
   - 0.0625234462923596 cashProportion[6] + 0.8529448543203701 x[3,1]
   + 0.0845316993872702 x[3,2] - 0.8529448543203701 x[6,1]
   - 0.0845316993872702 x[6,2] >= 0
 findWorstP[3,7]: z + 0.0625234462923596 cashProportion[3]
   - 0.0625234462923596 cashProportion[7] + 0.8529448543203701 x[3,1]
   + 0.0845316993872702 x[3,2] - 0.8529448543203701 x[7,1]
   - 0.0845316993872702 x[7,2] >= 0
 findWorstP[4,1]: z - 0.0667735042735043 cashProportion[1]
   + 0.0667735042735043 cashProportion[4] - 0.1654647435897436 x[1,1]
   - 0.767761752136752 x[1,2] + 0.1654647435897436 x[4,1]
   + 0.767761752136752 x[4,2] >= 0
 findWorstP[4,2]: z - 0.0667735042735043 cashProportion[2]
   + 0.0667735042735043 cashProportion[4] - 0.1654647435897436 x[2,1]
   - 0.767761752136752 x[2,2] + 0.1654647435897436 x[4,1]
   + 0.767761752136752 x[4,2] >= 0
 findWorstP[4,3]: z - 0.0667735042735043 cashProportion[3]
   + 0.0667735042735043 cashProportion[4] - 0.1654647435897436 x[3,1]
   - 0.767761752136752 x[3,2] + 0.1654647435897436 x[4,1]
   + 0.767761752136752 x[4,2] >= 0
 findWorstP[4,5]: z + 0.0667735042735043 cashProportion[4]
   - 0.0667735042735043 cashProportion[5] + 0.1654647435897436 x[4,1]
   + 0.767761752136752 x[4,2] - 0.1654647435897436 x[5,1]
   - 0.767761752136752 x[5,2] >= 0
 findWorstP[4,6]: z + 0.0667735042735043 cashProportion[4]
   - 0.0667735042735043 cashProportion[6] + 0.1654647435897436 x[4,1]
   + 0.767761752136752 x[4,2] - 0.1654647435897436 x[6,1]
   - 0.767761752136752 x[6,2] >= 0
 findWorstP[4,7]: z + 0.0667735042735043 cashProportion[4]
   - 0.0667735042735043 cashProportion[7] + 0.1654647435897436 x[4,1]
   + 0.767761752136752 x[4,2] - 0.1654647435897436 x[7,1]
   - 0.767761752136752 x[7,2] >= 0
 findWorstP[5,1]: z - 0.0674946004319655 cashProportion[1]
   + 0.0674946004319655 cashProportion[5] - 0.2216522678185745 x[1,1]
   - 0.71085313174946 x[1,2] + 0.2216522678185745 x[5,1]
   + 0.71085313174946 x[5,2] >= 0
 findWorstP[5,2]: z - 0.0674946004319655 cashProportion[2]
   + 0.0674946004319655 cashProportion[5] - 0.2216522678185745 x[2,1]
   - 0.71085313174946 x[2,2] + 0.2216522678185745 x[5,1]
   + 0.71085313174946 x[5,2] >= 0
 findWorstP[5,3]: z - 0.0674946004319655 cashProportion[3]
   + 0.0674946004319655 cashProportion[5] - 0.2216522678185745 x[3,1]
   - 0.71085313174946 x[3,2] + 0.2216522678185745 x[5,1]
   + 0.71085313174946 x[5,2] >= 0
 findWorstP[5,4]: z - 0.0674946004319655 cashProportion[4]
   + 0.0674946004319655 cashProportion[5] - 0.2216522678185745 x[4,1]
   - 0.71085313174946 x[4,2] + 0.2216522678185745 x[5,1]
   + 0.71085313174946 x[5,2] >= 0
 findWorstP[5,6]: z + 0.0674946004319655 cashProportion[5]
   - 0.0674946004319655 cashProportion[6] + 0.2216522678185745 x[5,1]
   + 0.71085313174946 x[5,2] - 0.2216522678185745 x[6,1]
   - 0.71085313174946 x[6,2] >= 0
 findWorstP[5,7]: z + 0.0674946004319655 cashProportion[5]
   - 0.0674946004319655 cashProportion[7] + 0.2216522678185745 x[5,1]
   + 0.71085313174946 x[5,2] - 0.2216522678185745 x[7,1]
   - 0.71085313174946 x[7,2] >= 0
 findWorstP[6,1]: z - 0.034101759650798 cashProportion[1]
   + 0.034101759650798 cashProportion[6] - 0.2924566907652434 x[1,1]
   - 0.6734415495839584 x[1,2] + 0.2924566907652434 x[6,1]
   + 0.6734415495839584 x[6,2] >= 0
 findWorstP[6,2]: z - 0.034101759650798 cashProportion[2]
   + 0.034101759650798 cashProportion[6] - 0.2924566907652434 x[2,1]
   - 0.6734415495839584 x[2,2] + 0.2924566907652434 x[6,1]
   + 0.6734415495839584 x[6,2] >= 0
 findWorstP[6,3]: z - 0.034101759650798 cashProportion[3]
   + 0.034101759650798 cashProportion[6] - 0.2924566907652434 x[3,1]
   - 0.6734415495839584 x[3,2] + 0.2924566907652434 x[6,1]
   + 0.6734415495839584 x[6,2] >= 0
 findWorstP[6,4]: z - 0.034101759650798 cashProportion[4]
   + 0.034101759650798 cashProportion[6] - 0.2924566907652434 x[4,1]
   - 0.6734415495839584 x[4,2] + 0.2924566907652434 x[6,1]
   + 0.6734415495839584 x[6,2] >= 0
 findWorstP[6,5]: z - 0.034101759650798 cashProportion[5]
   + 0.034101759650798 cashProportion[6] - 0.2924566907652434 x[5,1]
   - 0.6734415495839584 x[5,2] + 0.2924566907652434 x[6,1]
   + 0.6734415495839584 x[6,2] >= 0
 findWorstP[6,7]: z + 0.034101759650798 cashProportion[6]
   - 0.034101759650798 cashProportion[7] + 0.2924566907652434 x[6,1]
   + 0.6734415495839584 x[6,2] - 0.2924566907652434 x[7,1]
   - 0.6734415495839584 x[7,2] >= 0
 findWorstP[7,1]: z - 0.0281880708084339 cashProportion[1]
   + 0.0281880708084339 cashProportion[7] - 0.4567031232382456 x[1,1]
   - 0.5151088059533205 x[1,2] + 0.4567031232382456 x[7,1]
   + 0.5151088059533205 x[7,2] >= 0
 findWorstP[7,2]: z - 0.0281880708084339 cashProportion[2]
   + 0.0281880708084339 cashProportion[7] - 0.4567031232382456 x[2,1]
   - 0.5151088059533205 x[2,2] + 0.4567031232382456 x[7,1]
   + 0.5151088059533205 x[7,2] >= 0
 findWorstP[7,3]: z - 0.0281880708084339 cashProportion[3]
   + 0.0281880708084339 cashProportion[7] - 0.4567031232382456 x[3,1]
   - 0.5151088059533205 x[3,2] + 0.4567031232382456 x[7,1]
   + 0.5151088059533205 x[7,2] >= 0
 findWorstP[7,4]: z - 0.0281880708084339 cashProportion[4]
   + 0.0281880708084339 cashProportion[7] - 0.4567031232382456 x[4,1]
   - 0.5151088059533205 x[4,2] + 0.4567031232382456 x[7,1]
   + 0.5151088059533205 x[7,2] >= 0
 findWorstP[7,5]: z - 0.0281880708084339 cashProportion[5]
   + 0.0281880708084339 cashProportion[7] - 0.4567031232382456 x[5,1]
   - 0.5151088059533205 x[5,2] + 0.4567031232382456 x[7,1]
   + 0.5151088059533205 x[7,2] >= 0
 findWorstP[7,6]: z - 0.0281880708084339 cashProportion[6]
   + 0.0281880708084339 cashProportion[7] - 0.4567031232382456 x[6,1]
   - 0.5151088059533205 x[6,2] + 0.4567031232382456 x[7,1]
   + 0.5151088059533205 x[7,2] >= 0
Bounds
 z <= 1
 -infinity <= cashProportion[1] <= 1
 -infinity <= cashProportion[2] <= 1
 -infinity <= cashProportion[3] <= 1
 -infinity <= cashProportion[4] <= 1
 -infinity <= cashProportion[5] <= 1
 -infinity <= cashProportion[6] <= 1
 -infinity <= cashProportion[7] <= 1
Binaries
 x[1,1] x[1,2] x[2,1] x[2,2] x[3,1] x[3,2] x[4,1] x[4,2] x[5,1] x[5,2]
 x[6,1] x[6,2] x[7,1] x[7,2]
End
